\* row_knapsack_problem *\
Minimize
knapsack: 13 row_10 + 4 row_11 + 13 row_12 + 4 row_13 + 13 row_14 + 12 row_16
 + 13 row_17 + 13 row_18 + 12 row_19 + 4 row_20 + 12 row_22 + 14 row_24
 + 13 row_25 + 14 row_27 + 3 row_28 + 13 row_29 + 14 row_3 + 13 row_30
 + 14 row_32 + 2 row_33 + 13 row_34 + 13 row_35 + 3 row_36 + 13 row_37
 + 13 row_39 + 13 row_40 + 13 row_41 + 12 row_42 + 13 row_44 + 12 row_47
 + 2 row_48 + 2 row_5 + 12 row_6 + 2 row_9
Subject To
sensitivity: 3 row_10 + 12 row_11 + 3 row_12 + 12 row_13 + 3 row_14 + 4 row_16
 + 3 row_17 + 3 row_18 + 4 row_19 + 12 row_20 + 4 row_22 + 2 row_24 + 3 row_25
 + 2 row_27 + 13 row_28 + 3 row_29 + 2 row_3 + 3 row_30 + 2 row_32 + 14 row_33
 + 3 row_34 + 3 row_35 + 13 row_36 + 3 row_37 + 3 row_39 + 3 row_40 + 3 row_41
 + 4 row_42 + 3 row_44 + 4 row_47 + 14 row_48 + 14 row_5 + 4 row_6 + 14 row_9
 >= 19.5
Bounds
 row_10 <= 1
 row_11 <= 1
 row_12 <= 1
 row_13 <= 1
 row_14 <= 1
 row_16 <= 1
 row_17 <= 1
 row_18 <= 1
 row_19 <= 1
 row_20 <= 1
 row_22 <= 1
 row_24 <= 1
 row_25 <= 1
 row_27 <= 1
 row_28 <= 1
 row_29 <= 1
 row_3 <= 1
 row_30 <= 1
 row_32 <= 1
 row_33 <= 1
 row_34 <= 1
 row_35 <= 1
 row_36 <= 1
 row_37 <= 1
 row_39 <= 1
 row_40 <= 1
 row_41 <= 1
 row_42 <= 1
 row_44 <= 1
 row_47 <= 1
 row_48 <= 1
 row_5 <= 1
 row_6 <= 1
 row_9 <= 1
End
